results/x-long/X-n167-k10.vrp_seed-1.vrp.sol
Route #1: 99 63 103 86 5
Route #2: 124 87 42 54 23 139 154 132 60 113 71 143 130 3 79 121 152
Route #3: 6 157 9 48 68 162 62 123 128 14 96 17 159 15 140 119 134
Route #4: 137 73 22 83 69 155 56 58 61 127 126 47 118 93 25 7 89 67
Route #5: 80 105 36 110 65 34 164 81 45 98 150 135 100 102 108 27 101 18 144
Route #6: 44 30 92 55 38 151 131 149 4 153 116 148 97 115 156 85 52 46
Route #7: 109 16 28 29 2 114 136 37 84 146 51 10 72 32 53 59 158
Route #8: 21 160 75 95 112 120 82 11 39 141 70 133 24 31 40 50 19 142 76
Route #9: 8 129 145 163 88 111 122 1 13 77 57 12 104 64 107 49 20 138
Route #10: 35 26 165 78 41 74 33 106 166 94 90 161 91 147 117 43 66 125
Cost 20557.000000